
n_res = 8;
rcap = [134, 147, 129, 137, 1505, 1613, 1530, 1533];
rtype = [1, 1, 1, 1, 2, 2, 2, 2];
n_tasks = 100;
modes =  [{1, 2, 3}, {4, 5, 6}, {7, 8, 9}, {10, 11, 12}, {13, 14, 15}, {16, 17, 18}, {19, 20, 21}, {22, 23, 24}, {25, 26, 27}, {28, 29, 30}, {31, 32, 33}, {34, 35, 36}, {37, 38, 39}, {40, 41, 42}, {43, 44, 45}, {46, 47, 48}, {49, 50, 51}, {52, 53, 54}, {55, 56, 57}, {58, 59, 60}, {61, 62, 63}, {64, 65, 66}, {67, 68, 69}, {70, 71, 72}, {73, 74, 75}, {76, 77, 78}, {79, 80, 81}, {82, 83, 84}, {85, 86, 87}, {88, 89, 90}, {91, 92, 93}, {94, 95, 96}, {97, 98, 99}, {100, 101, 102}, {103, 104, 105}, {106, 107, 108}, {109, 110, 111}, {112, 113, 114}, {115, 116, 117}, {118, 119, 120}, {121, 122, 123}, {124, 125, 126}, {127, 128, 129}, {130, 131, 132}, {133, 134, 135}, {136, 137, 138}, {139, 140, 141}, {142, 143, 144}, {145, 146, 147}, {148, 149, 150}, {151, 152, 153}, {154, 155, 156}, {157, 158, 159}, {160, 161, 162}, {163, 164, 165}, {166, 167, 168}, {169, 170, 171}, {172, 173, 174}, {175, 176, 177}, {178, 179, 180}, {181, 182, 183}, {184, 185, 186}, {187, 188, 189}, {190, 191, 192}, {193, 194, 195}, {196, 197, 198}, {199, 200, 201}, {202, 203, 204}, {205, 206, 207}, {208, 209, 210}, {211, 212, 213}, {214, 215, 216}, {217, 218, 219}, {220, 221, 222}, {223, 224, 225}, {226, 227, 228}, {229, 230, 231}, {232, 233, 234}, {235, 236, 237}, {238, 239, 240}, {241, 242, 243}, {244, 245, 246}, {247, 248, 249}, {250, 251, 252}, {253, 254, 255}, {256, 257, 258}, {259, 260, 261}, {262, 263, 264}, {265, 266, 267}, {268, 269, 270}, {271, 272, 273}, {274, 275, 276}, {277, 278, 279}, {280, 281, 282}, {283, 284, 285}, {286, 287, 288}, {289, 290, 291}, {292, 293, 294}, {295, 296, 297}, {298, 299, 300}];
succ =  [{22, 16, 15, 6, 4}, {23, 22, 17, 15, 14, 11, 5}, {23, 19, 14, 9, 7, 6}, {23, 18, 14, 13, 5}, {46, 25, 20, 19, 12, 9}, {46, 36, 32, 30, 27, 25, 21, 20, 18}, {37, 25, 24, 18, 17, 16}, {46, 27, 22, 20, 12}, {40, 39, 37, 33, 32, 31, 29, 27, 24, 21}, {46, 39, 37, 36, 35, 32, 30, 28, 27, 19}, {37, 36, 32, 25, 21, 18}, {45, 39, 38, 37, 36, 35, 34, 32, 31, 30, 28, 26}, {48, 46, 40, 38, 37, 35, 32, 31, 29, 28, 24}, {46, 40, 37, 34, 32, 31, 30, 26, 21}, {46, 39, 35, 32, 26, 21, 19}, {46, 45, 38, 35, 31, 30, 28, 26}, {48, 45, 40, 36, 35, 34, 32, 29, 28}, {45, 39, 38, 35, 34, 28, 26}, {48, 45, 43, 40, 38, 34, 29}, {56, 53, 49, 42, 40, 38, 37, 33}, {49, 48, 45, 44, 38, 28}, {49, 45, 39, 33, 31}, {62, 48, 42, 38, 36, 34}, {51, 45, 43, 36, 34}, {51, 45, 39, 31}, {48, 44, 29}, {62, 58, 51, 48, 47, 34}, {60, 56, 53, 51, 47, 43, 42, 41}, {62, 60, 59, 56, 53, 52, 51, 47, 42, 41}, {60, 58, 56, 53, 51, 50, 49, 48, 43}, {62, 60, 56, 53, 52, 47, 42, 41}, {60, 53, 51, 47, 44, 41}, {60, 58, 51, 50, 48, 43}, {60, 56, 53, 52, 49, 44}, {66, 60, 51, 44, 43}, {60, 59, 52, 50, 47, 41}, {62, 60, 52, 50, 47, 41}, {66, 60, 58, 55, 52, 51, 50}, {66, 64, 63, 62, 60, 59, 57, 55, 54}, {62, 61, 59, 51, 47}, {66, 64, 63, 58, 57, 55, 54}, {64, 63, 58, 57, 55, 50}, {62, 59, 57, 55, 54, 52}, {64, 63, 59, 57, 55, 50}, {62, 59, 56, 55, 54, 52}, {68, 67, 66, 61, 60, 57, 52}, {66, 64, 63, 57, 54}, {77, 72, 71, 66, 55}, {77, 72, 71, 66, 55}, {69, 65, 61, 54}, {72, 65, 64, 57}, {79, 74, 72, 71, 69, 63}, {79, 73, 72, 71, 68, 63}, {83, 77, 74, 72, 71, 70, 68, 67}, {69, 68, 65, 61}, {77, 74, 73, 71, 68, 65}, {83, 80, 79, 76, 74, 71, 70, 69}, {83, 80, 79, 78, 76, 74, 71, 69}, {79, 76, 74, 73, 65}, {83, 80, 77, 76, 70, 69}, {83, 80, 79, 75, 74, 73, 70}, {83, 80, 79, 77, 75, 73, 70}, {77, 76, 65}, {83, 80, 77, 75, 74}, {83, 80, 75, 70}, {83, 80, 76, 75}, {80, 75, 73}, {82, 81, 80, 76}, {84, 75, 73}, {91, 84, 81, 78}, {100, 91, 85, 84, 82, 81}, {100, 91, 89, 88, 84, 82}, {100, 89, 88, 86, 85, 82}, {100, 91, 89, 85, 84, 82}, {91, 82, 81}, {100, 99, 94, 91, 87, 85, 84}, {100, 99, 91, 89, 85, 84}, {100, 90, 89, 85, 82}, {87, 84, 81}, {97, 89, 87, 84}, {97, 96, 89, 88, 86}, {99, 98, 97, 95, 93, 87}, {98, 95, 93, 92, 89}, {98, 96, 95, 86}, {97, 95, 93, 92}, {93, 92}, {96, 92}, {90}, {94}, {94}, {92}, {}, {}, {}, {}, {}, {}, {}, {}, {}];
n_opt = 300;
dur = [6, 28, 30, 5, 20, 22, 17, 24, 25, 2, 25, 28, 18, 19, 29, 3, 13, 24, 8, 13, 17, 11, 12, 13, 7, 18, 27, 3, 17, 23, 5, 20, 22, 19, 22, 28, 11, 22, 27, 6, 18, 20, 1, 14, 28, 8, 10, 16, 22, 23, 24, 1, 8, 16, 12, 18, 19, 17, 18, 30, 9, 26, 28, 8, 18, 20, 17, 22, 23, 2, 14, 29, 10, 13, 28, 3, 5, 13, 3, 20, 25, 4, 8, 22, 10, 17, 24, 16, 23, 29, 6, 17, 25, 7, 8, 19, 1, 20, 24, 7, 9, 13, 1, 7, 11, 14, 27, 30, 9, 15, 26, 13, 25, 27, 8, 9, 28, 13, 17, 28, 3, 28, 29, 1, 9, 12, 18, 26, 30, 7, 26, 28, 8, 11, 21, 3, 16, 29, 2, 5, 28, 1, 2, 7, 2, 5, 6, 5, 9, 10, 7, 8, 21, 1, 3, 5, 3, 21, 28, 1, 13, 28, 10, 22, 30, 16, 23, 27, 16, 25, 26, 6, 28, 29, 14, 15, 21, 12, 21, 22, 6, 21, 28, 1, 4, 27, 1, 10, 14, 11, 17, 27, 2, 3, 25, 5, 21, 28, 17, 24, 26, 1, 10, 20, 13, 14, 27, 5, 8, 11, 2, 9, 17, 2, 5, 13, 9, 12, 17, 4, 6, 14, 8, 10, 17, 15, 26, 29, 8, 22, 28, 7, 8, 15, 4, 5, 6, 17, 19, 26, 12, 16, 22, 2, 29, 30, 11, 29, 30, 3, 12, 26, 10, 12, 17, 16, 20, 21, 5, 7, 12, 1, 8, 22, 5, 23, 29, 5, 20, 26, 1, 22, 26, 11, 25, 27, 1, 3, 11, 19, 25, 26, 9, 17, 22, 1, 27, 28, 5, 25, 28, 10, 25, 30, 5, 6, 20, 11, 12, 20];
rreq = [|3, 3, 3, 3, 3, 3, 2, 1, 1, 2, 2, 2, 2, 2, 1, 3, 2, 2, 3, 3, 1, 2, 2, 2, 2, 1, 1, 2, 2, 1, 3, 2, 2, 3, 3, 1, 4, 3, 3, 4, 3, 2, 4, 2, 1, 4, 3, 2, 4, 4, 3, 3, 3, 1, 4, 4, 3, 2, 2, 2, 5, 5, 5, 5, 3, 3, 2, 2, 2, 5, 4, 4, 3, 1, 1, 4, 4, 4, 1, 1, 1, 4, 3, 3, 4, 4, 3, 5, 3, 3, 5, 4, 3, 5, 4, 4, 3, 3, 3, 4, 3, 1, 3, 2, 2, 5, 4, 3, 3, 3, 3, 4, 3, 2, 4, 4, 4, 4, 3, 3, 3, 2, 2, 3, 1, 1, 3, 3, 3, 3, 3, 3, 5, 3, 3, 3, 3, 3, 4, 3, 3, 4, 4, 4, 2, 2, 2, 2, 1, 1, 3, 1, 1, 4, 3, 2, 4, 2, 1, 3, 3, 3, 3, 3, 3, 2, 1, 1, 2, 2, 2, 1, 1, 1, 1, 1, 1, 4, 3, 2, 3, 2, 2, 3, 2, 2, 4, 4, 4, 4, 3, 3, 4, 3, 1, 3, 3, 3, 3, 3, 2, 4, 3, 3, 5, 3, 2, 4, 3, 2, 2, 2, 2, 3, 1, 1, 4, 3, 2, 4, 4, 4, 3, 2, 1, 2, 1, 1, 3, 3, 2, 4, 4, 4, 3, 2, 1, 3, 2, 1, 4, 4, 4, 1, 1, 1, 1, 1, 1, 5, 5, 5, 4, 3, 2, 3, 2, 1, 3, 2, 1, 4, 4, 4, 4, 4, 3, 5, 4, 3, 5, 5, 5, 4, 4, 4, 4, 4, 4, 3, 3, 3, 5, 4, 4, 2, 2, 2, 3, 3, 3, 4, 4, 2, 4, 4, 4, 4, 3, 2
 |5, 5, 5, 4, 4, 4, 5, 4, 4, 2, 2, 2, 2, 2, 2, 4, 3, 3, 4, 3, 2, 2, 2, 2, 3, 3, 1, 4, 4, 4, 5, 3, 3, 5, 2, 2, 2, 1, 1, 3, 1, 1, 4, 4, 4, 4, 4, 4, 4, 2, 2, 3, 2, 2, 3, 3, 2, 4, 3, 2, 4, 2, 2, 2, 2, 2, 1, 1, 1, 4, 2, 2, 4, 3, 3, 5, 3, 2, 3, 3, 3, 2, 2, 2, 3, 3, 3, 3, 3, 3, 5, 3, 2, 3, 3, 3, 2, 1, 1, 4, 3, 2, 1, 1, 1, 4, 3, 1, 1, 1, 1, 4, 3, 3, 5, 4, 4, 1, 1, 1, 3, 2, 2, 5, 4, 3, 2, 2, 2, 4, 4, 4, 5, 3, 2, 5, 3, 3, 2, 2, 2, 5, 3, 3, 2, 2, 2, 4, 3, 2, 5, 4, 4, 3, 2, 1, 5, 4, 4, 3, 2, 1, 5, 3, 2, 2, 2, 2, 3, 2, 2, 5, 3, 2, 2, 1, 1, 5, 4, 3, 5, 3, 3, 1, 1, 1, 3, 3, 3, 2, 2, 2, 4, 4, 4, 3, 2, 1, 3, 3, 2, 2, 1, 1, 5, 5, 5, 5, 4, 4, 3, 2, 1, 5, 3, 2, 4, 4, 4, 3, 2, 2, 4, 3, 2, 4, 3, 1, 4, 2, 1, 2, 2, 2, 2, 2, 2, 1, 1, 1, 3, 3, 2, 4, 4, 4, 3, 2, 2, 3, 2, 2, 5, 3, 3, 3, 2, 2, 2, 2, 2, 2, 1, 1, 2, 2, 2, 2, 1, 1, 5, 5, 5, 5, 3, 3, 3, 3, 3, 3, 3, 3, 3, 2, 2, 5, 2, 2, 3, 3, 3, 4, 4, 3, 4, 4, 4, 3, 2, 2
 |4, 2, 2, 1, 1, 1, 3, 3, 2, 3, 3, 3, 4, 3, 3, 2, 2, 2, 5, 3, 2, 4, 3, 3, 4, 4, 4, 5, 4, 4, 2, 1, 1, 2, 2, 2, 2, 2, 2, 2, 2, 2, 4, 3, 2, 4, 2, 2, 5, 3, 2, 4, 3, 2, 2, 2, 1, 1, 1, 1, 2, 1, 1, 4, 4, 2, 4, 3, 2, 2, 1, 1, 5, 4, 4, 4, 4, 4, 4, 4, 4, 3, 1, 1, 3, 3, 1, 4, 4, 4, 2, 1, 1, 4, 3, 3, 4, 4, 4, 2, 2, 2, 5, 4, 2, 5, 3, 3, 3, 2, 2, 2, 1, 1, 1, 1, 1, 1, 1, 1, 4, 2, 1, 4, 3, 2, 2, 2, 2, 3, 2, 1, 4, 3, 2, 3, 2, 2, 3, 2, 2, 4, 4, 4, 2, 1, 1, 3, 3, 3, 5, 4, 4, 2, 2, 1, 2, 1, 1, 4, 3, 3, 4, 4, 4, 4, 3, 3, 5, 4, 4, 4, 4, 4, 5, 5, 5, 3, 2, 2, 3, 2, 2, 4, 3, 1, 2, 1, 1, 2, 2, 2, 1, 1, 1, 4, 3, 2, 4, 3, 2, 4, 2, 2, 3, 1, 1, 2, 1, 1, 3, 3, 3, 3, 3, 3, 3, 3, 2, 2, 2, 2, 3, 3, 3, 3, 3, 2, 4, 4, 2, 1, 1, 1, 5, 4, 3, 2, 1, 1, 5, 3, 3, 3, 1, 1, 5, 3, 3, 2, 2, 2, 2, 2, 1, 3, 2, 1, 5, 2, 1, 4, 4, 4, 5, 4, 4, 5, 3, 3, 4, 3, 3, 5, 5, 5, 4, 2, 1, 5, 3, 1, 2, 1, 1, 5, 3, 1, 4, 3, 3, 3, 3, 1, 3, 3, 3, 5, 2, 2
 |3, 3, 3, 2, 1, 1, 4, 4, 4, 3, 3, 3, 2, 2, 2, 1, 1, 1, 4, 3, 2, 5, 2, 2, 4, 2, 2, 2, 2, 1, 4, 4, 4, 5, 4, 4, 3, 3, 3, 3, 2, 1, 4, 2, 2, 2, 2, 2, 4, 3, 3, 4, 4, 4, 4, 3, 2, 1, 1, 1, 3, 2, 2, 2, 2, 2, 3, 2, 2, 2, 1, 1, 4, 3, 2, 4, 4, 2, 3, 2, 1, 4, 3, 3, 3, 1, 1, 3, 2, 1, 4, 2, 2, 3, 3, 3, 5, 4, 4, 3, 3, 2, 2, 1, 1, 4, 4, 3, 4, 4, 4, 3, 2, 2, 4, 3, 3, 5, 2, 1, 4, 4, 3, 3, 2, 1, 5, 4, 4, 5, 4, 3, 5, 5, 5, 2, 2, 1, 2, 2, 1, 4, 2, 2, 4, 3, 2, 1, 1, 1, 4, 2, 2, 2, 2, 1, 5, 5, 5, 4, 4, 3, 4, 4, 4, 5, 2, 1, 2, 2, 2, 3, 3, 2, 2, 2, 2, 1, 1, 1, 4, 3, 3, 1, 1, 1, 1, 1, 1, 5, 3, 3, 3, 2, 2, 4, 3, 3, 4, 2, 2, 4, 3, 2, 5, 4, 4, 3, 3, 3, 4, 3, 3, 3, 2, 1, 4, 4, 4, 5, 5, 5, 3, 3, 2, 3, 3, 3, 3, 3, 3, 4, 4, 4, 5, 3, 2, 5, 3, 3, 5, 4, 3, 3, 3, 2, 5, 3, 3, 3, 2, 2, 4, 3, 1, 3, 2, 2, 2, 1, 1, 3, 3, 2, 4, 4, 4, 2, 2, 1, 2, 2, 2, 5, 4, 4, 4, 2, 1, 4, 2, 2, 3, 3, 2, 3, 2, 2, 4, 3, 2, 5, 2, 1, 2, 2, 2, 2, 2, 2
 |19, 13, 11, 7, 4, 3, 17, 14, 3, 25, 20, 11, 25, 18, 6, 7, 6, 6, 25, 16, 12, 20, 17, 13, 23, 23, 20, 27, 19, 9, 19, 16, 6, 8, 7, 4, 15, 13, 12, 1, 1, 1, 19, 9, 7, 21, 17, 15, 14, 11, 7, 12, 11, 11, 25, 19, 13, 25, 19, 15, 24, 18, 12, 24, 23, 22, 9, 9, 8, 25, 18, 16, 26, 26, 24, 28, 27, 27, 20, 19, 19, 19, 12, 6, 20, 15, 11, 23, 23, 23, 13, 11, 9, 18, 13, 12, 12, 8, 6, 28, 22, 21, 10, 5, 4, 7, 7, 6, 23, 13, 7, 25, 23, 23, 19, 12, 5, 22, 12, 5, 18, 16, 14, 14, 14, 5, 11, 11, 11, 22, 20, 17, 16, 12, 8, 10, 9, 8, 24, 24, 24, 16, 15, 7, 27, 22, 10, 27, 16, 14, 20, 19, 13, 11, 5, 5, 17, 8, 3, 30, 27, 25, 12, 7, 5, 16, 14, 12, 30, 26, 25, 22, 16, 3, 24, 18, 13, 19, 12, 7, 8, 6, 3, 28, 27, 27, 24, 21, 18, 12, 9, 6, 26, 19, 10, 19, 11, 8, 19, 11, 8, 19, 18, 18, 14, 10, 2, 24, 23, 18, 28, 27, 26, 24, 18, 16, 8, 7, 7, 1, 1, 1, 22, 20, 17, 24, 19, 15, 3, 2, 1, 20, 17, 16, 20, 17, 17, 18, 12, 10, 27, 22, 15, 22, 22, 22, 17, 17, 12, 16, 14, 6, 6, 5, 4, 26, 21, 20, 8, 7, 3, 21, 13, 6, 28, 27, 27, 16, 14, 13, 24, 19, 15, 6, 6, 4, 18, 16, 13, 27, 26, 24, 9, 4, 2, 15, 14, 12, 16, 15, 11, 14, 14, 13, 20, 14, 6, 16, 13, 10
 |20, 11, 4, 17, 9, 9, 10, 10, 10, 25, 23, 20, 14, 14, 11, 9, 7, 5, 16, 15, 8, 20, 20, 20, 6, 5, 5, 22, 18, 15, 26, 17, 11, 8, 8, 6, 23, 20, 18, 4, 3, 2, 26, 22, 11, 20, 15, 8, 28, 27, 27, 23, 19, 17, 23, 21, 20, 28, 20, 13, 20, 20, 20, 30, 27, 24, 16, 14, 10, 13, 12, 7, 17, 14, 12, 28, 28, 28, 24, 17, 10, 13, 6, 6, 22, 10, 3, 22, 18, 16, 25, 24, 24, 8, 8, 8, 24, 16, 9, 10, 10, 10, 21, 18, 17, 12, 7, 4, 20, 20, 19, 10, 6, 4, 18, 9, 2, 24, 22, 21, 27, 26, 26, 10, 5, 4, 26, 26, 24, 19, 15, 13, 28, 26, 25, 11, 9, 8, 28, 25, 23, 13, 9, 6, 16, 12, 8, 30, 22, 19, 22, 21, 20, 25, 20, 18, 19, 15, 13, 24, 11, 8, 23, 18, 13, 26, 23, 18, 9, 8, 6, 15, 13, 10, 19, 13, 9, 30, 19, 5, 9, 8, 7, 17, 14, 13, 17, 13, 9, 24, 18, 10, 26, 22, 17, 28, 15, 5, 26, 24, 22, 26, 23, 23, 16, 11, 8, 13, 13, 7, 22, 18, 15, 26, 20, 11, 22, 19, 19, 11, 11, 7, 11, 8, 5, 26, 24, 17, 21, 19, 11, 17, 12, 5, 11, 8, 6, 15, 14, 14, 21, 19, 5, 27, 24, 23, 18, 9, 8, 13, 10, 6, 28, 21, 12, 26, 24, 21, 7, 7, 7, 17, 14, 1, 24, 22, 20, 19, 18, 12, 26, 20, 18, 26, 20, 14, 27, 26, 22, 23, 21, 17, 23, 22, 22, 12, 8, 6, 26, 15, 9, 19, 17, 16, 15, 10, 7, 20, 20, 13
 |28, 27, 24, 12, 9, 8, 9, 8, 7, 20, 18, 16, 21, 17, 17, 15, 14, 14, 22, 15, 15, 13, 12, 7, 10, 9, 9, 20, 18, 15, 13, 12, 11, 8, 8, 6, 3, 2, 2, 24, 23, 23, 10, 9, 7, 13, 11, 6, 25, 24, 24, 28, 27, 27, 12, 11, 11, 21, 19, 17, 13, 13, 6, 13, 9, 5, 19, 18, 13, 10, 6, 1, 19, 19, 19, 9, 9, 1, 14, 13, 13, 14, 10, 6, 23, 11, 11, 23, 12, 2, 28, 20, 17, 15, 12, 3, 22, 18, 12, 15, 9, 1, 28, 22, 10, 28, 24, 20, 23, 20, 14, 12, 12, 8, 27, 26, 22, 26, 20, 13, 21, 16, 12, 17, 15, 10, 29, 29, 28, 25, 24, 24, 12, 10, 7, 20, 20, 20, 6, 5, 2, 20, 18, 9, 21, 15, 11, 20, 14, 9, 13, 9, 8, 20, 12, 4, 28, 27, 27, 22, 17, 14, 12, 12, 11, 21, 21, 18, 23, 19, 18, 20, 20, 18, 24, 19, 15, 16, 13, 7, 11, 10, 10, 16, 10, 5, 28, 23, 23, 23, 19, 16, 8, 6, 5, 25, 25, 23, 20, 14, 11, 24, 17, 14, 25, 23, 14, 16, 12, 7, 17, 8, 2, 4, 4, 3, 25, 12, 9, 22, 22, 21, 23, 20, 20, 24, 17, 4, 10, 10, 10, 14, 10, 8, 17, 16, 16, 26, 24, 22, 19, 11, 6, 12, 5, 3, 24, 24, 21, 16, 12, 11, 5, 5, 5, 16, 16, 9, 25, 24, 21, 21, 14, 13, 10, 8, 4, 6, 6, 6, 14, 11, 5, 20, 11, 9, 28, 27, 27, 8, 7, 3, 27, 26, 24, 29, 27, 26, 21, 13, 10, 18, 15, 15, 16, 11, 10, 23, 23, 21
 |30, 25, 24, 4, 3, 2, 19, 18, 17, 30, 28, 25, 23, 21, 20, 17, 14, 11, 17, 11, 8, 22, 14, 7, 27, 19, 18, 26, 21, 17, 18, 17, 17, 23, 9, 5, 18, 14, 8, 19, 18, 11, 14, 14, 14, 16, 15, 14, 18, 17, 17, 10, 9, 4, 8, 7, 7, 11, 9, 3, 29, 26, 25, 21, 15, 10, 25, 18, 11, 29, 28, 28, 18, 12, 4, 9, 9, 9, 15, 11, 4, 17, 16, 15, 29, 27, 26, 20, 18, 17, 23, 15, 10, 23, 23, 22, 8, 5, 5, 22, 15, 8, 23, 18, 14, 10, 8, 8, 15, 10, 5, 23, 17, 8, 21, 12, 10, 15, 14, 12, 28, 20, 10, 12, 12, 12, 16, 15, 15, 17, 17, 11, 23, 20, 16, 18, 9, 4, 18, 14, 5, 12, 12, 12, 11, 9, 7, 28, 21, 18, 25, 23, 21, 23, 20, 18, 11, 10, 5, 22, 16, 5, 25, 22, 21, 19, 18, 13, 22, 13, 8, 18, 16, 14, 11, 7, 5, 24, 22, 15, 15, 9, 4, 25, 19, 16, 27, 20, 10, 5, 3, 3, 14, 14, 14, 11, 6, 6, 13, 6, 5, 17, 16, 16, 23, 20, 19, 15, 13, 13, 11, 9, 6, 29, 21, 19, 16, 15, 7, 25, 20, 9, 19, 19, 17, 21, 21, 21, 6, 6, 6, 19, 16, 13, 25, 16, 8, 13, 9, 6, 20, 18, 18, 30, 25, 20, 21, 20, 16, 8, 7, 6, 10, 9, 9, 18, 18, 18, 14, 10, 8, 18, 8, 4, 25, 22, 14, 29, 25, 25, 15, 14, 13, 20, 18, 16, 28, 27, 27, 20, 15, 12, 20, 13, 6, 20, 13, 9, 13, 12, 7, 16, 8, 8, 5, 3, 3, 18, 11, 9|];